60

 0   0   0   1   2   2   5   5   5   5   6   1   1   2   2   4   5   5   7   7   2   5   5   5   8   3   6   6   7   8   9   9   5   5   6   9   9  10  10   5   6   7   8   8  10   6   6   6   6   7   7   7   8   8   8  10  10  11  11  12  
 0   0   0   1   2   2   5   5   5   5   6   1   1   2   2   4   5   5   7   7   2   5   5   5   8   3   6   6   7   8   9   9   5   5   6   9   9  10  10   5   6   7   8   8  10   6   6   6   6   7   7   7   8   8   8  10  10  11  11  12  
 0   0   0   1   2   2   5   5   5   5   6   1   1   2   2   4   5   5   7   7   2   5   5   5   8   3   6   6   7   8   9   9   5   5   6   9   9  10  10   5   6   7   8   8  10   6   6   6   6   7   7   7   8   8   8  10  10  11  11  12  
 1   1   1   0   1   1   4   4   4   4   5   2   2   1   1   3   4   4   6   6   3   4   4   4   7   4   5   5   6   7   8   8   4   4   5   8   8   9   9   6   5   6   7   7   9   7   7   7   7   6   6   6   7   7   7   9   9  10  10  11  
 2   2   2   1   0   0   3   3   3   3   4   3   3   2   2   2   3   3   5   5   4   3   3   3   6   5   4   4   5   6   7   7   5   5   4   7   7   8   8   7   6   5   6   6   8   8   8   8   8   7   7   7   6   6   6   8   8   9   9  10  
 2   2   2   1   0   0   3   3   3   3   4   3   3   2   2   2   3   3   5   5   4   3   3   3   6   5   4   4   5   6   7   7   5   5   4   7   7   8   8   7   6   5   6   6   8   8   8   8   8   7   7   7   6   6   6   8   8   9   9  10  
 5   5   5   4   3   3   0   0   0   0   1   6   6   5   5   3   2   2   2   2   7   4   4   4   3   8   5   5   4   3   4   4   8   8   7   4   4   5   5  10   9   8   7   7   5  11  11  11  11  10  10  10   9   9   9   7   7   6   6   7  
 5   5   5   4   3   3   0   0   0   0   1   6   6   5   5   3   2   2   2   2   7   4   4   4   3   8   5   5   4   3   4   4   8   8   7   4   4   5   5  10   9   8   7   7   5  11  11  11  11  10  10  10   9   9   9   7   7   6   6   7  
 5   5   5   4   3   3   0   0   0   0   1   6   6   5   5   3   2   2   2   2   7   4   4   4   3   8   5   5   4   3   4   4   8   8   7   4   4   5   5  10   9   8   7   7   5  11  11  11  11  10  10  10   9   9   9   7   7   6   6   7  
 5   5   5   4   3   3   0   0   0   0   1   6   6   5   5   3   2   2   2   2   7   4   4   4   3   8   5   5   4   3   4   4   8   8   7   4   4   5   5  10   9   8   7   7   5  11  11  11  11  10  10  10   9   9   9   7   7   6   6   7  
 6   6   6   5   4   4   1   1   1   1   0   7   7   6   6   4   3   3   1   1   8   5   5   5   2   9   6   6   5   4   3   3   9   9   8   5   5   4   4  11  10   9   8   8   6  12  12  12  12  11  11  11  10  10  10   8   8   7   7   6  
 1   1   1   2   3   3   6   6   6   6   7   0   0   1   1   3   4   4   6   6   1   4   4   4   7   2   5   5   6   7   8   8   4   4   5   8   8   9   9   4   5   6   7   7   9   5   5   5   5   6   6   6   7   7   7   9   9  10  10  11  
 1   1   1   2   3   3   6   6   6   6   7   0   0   1   1   3   4   4   6   6   1   4   4   4   7   2   5   5   6   7   8   8   4   4   5   8   8   9   9   4   5   6   7   7   9   5   5   5   5   6   6   6   7   7   7   9   9  10  10  11  
 2   2   2   1   2   2   5   5   5   5   6   1   1   0   0   2   3   3   5   5   2   3   3   3   6   3   4   4   5   6   7   7   3   3   4   7   7   8   8   5   4   5   6   6   8   6   6   6   6   5   5   5   6   6   6   8   8   9   9  10  
 2   2   2   1   2   2   5   5   5   5   6   1   1   0   0   2   3   3   5   5   2   3   3   3   6   3   4   4   5   6   7   7   3   3   4   7   7   8   8   5   4   5   6   6   8   6   6   6   6   5   5   5   6   6   6   8   8   9   9  10  
 4   4   4   3   2   2   3   3   3   3   4   3   3   2   2   0   1   1   3   3   4   1   1   1   4   5   2   2   3   4   5   5   5   5   4   5   5   6   6   7   6   5   4   4   6   8   8   8   8   7   7   7   6   6   6   6   6   7   7   8  
 5   5   5   4   3   3   2   2   2   2   3   4   4   3   3   1   0   0   2   2   5   2   2   2   3   6   3   3   2   3   4   4   6   6   5   4   4   5   5   8   7   6   5   5   5   9   9   9   9   8   8   8   7   7   7   5   5   6   6   7  
 5   5   5   4   3   3   2   2   2   2   3   4   4   3   3   1   0   0   2   2   5   2   2   2   3   6   3   3   2   3   4   4   6   6   5   4   4   5   5   8   7   6   5   5   5   9   9   9   9   8   8   8   7   7   7   5   5   6   6   7  
 7   7   7   6   5   5   2   2   2   2   1   6   6   5   5   3   2   2   0   0   7   4   4   4   1   8   5   5   4   3   2   2   8   8   7   4   4   3   3  10   9   8   7   7   5  11  11  11  11  10  10  10   9   9   9   7   7   6   6   5  
 7   7   7   6   5   5   2   2   2   2   1   6   6   5   5   3   2   2   0   0   7   4   4   4   1   8   5   5   4   3   2   2   8   8   7   4   4   3   3  10   9   8   7   7   5  11  11  11  11  10  10  10   9   9   9   7   7   6   6   5  
 2   2   2   3   4   4   7   7   7   7   8   1   1   2   2   4   5   5   7   7   0   3   3   3   6   1   4   4   5   6   7   7   3   3   4   7   7   8   8   3   4   5   6   6   8   4   4   4   4   5   5   5   6   6   6   8   8   9   9  10  
 5   5   5   4   3   3   4   4   4   4   5   4   4   3   3   1   2   2   4   4   3   0   0   0   3   4   1   1   2   3   4   4   4   4   3   4   4   5   5   6   5   4   3   3   5   7   7   7   7   6   6   6   5   5   5   5   5   6   6   7  
 5   5   5   4   3   3   4   4   4   4   5   4   4   3   3   1   2   2   4   4   3   0   0   0   3   4   1   1   2   3   4   4   4   4   3   4   4   5   5   6   5   4   3   3   5   7   7   7   7   6   6   6   5   5   5   5   5   6   6   7  
 5   5   5   4   3   3   4   4   4   4   5   4   4   3   3   1   2   2   4   4   3   0   0   0   3   4   1   1   2   3   4   4   4   4   3   4   4   5   5   6   5   4   3   3   5   7   7   7   7   6   6   6   5   5   5   5   5   6   6   7  
 8   8   8   7   6   6   3   3   3   3   2   7   7   6   6   4   3   3   1   1   6   3   3   3   0   7   4   4   3   2   1   1   7   7   6   3   3   2   2   9   8   7   6   6   4  10  10  10  10   9   9   9   8   8   8   6   6   5   5   4  
 3   3   3   4   5   5   8   8   8   8   9   2   2   3   3   5   6   6   8   8   1   4   4   4   7   0   3   3   4   5   6   6   2   2   3   6   6   7   7   2   3   4   5   5   7   3   3   3   3   4   4   4   5   5   5   7   7   8   8   9  
 6   6   6   5   4   4   5   5   5   5   6   5   5   4   4   2   3   3   5   5   4   1   1   1   4   3   0   0   1   2   3   3   3   3   2   3   3   4   4   5   4   3   2   2   4   6   6   6   6   5   5   5   4   4   4   4   4   5   5   6  
 6   6   6   5   4   4   5   5   5   5   6   5   5   4   4   2   3   3   5   5   4   1   1   1   4   3   0   0   1   2   3   3   3   3   2   3   3   4   4   5   4   3   2   2   4   6   6   6   6   5   5   5   4   4   4   4   4   5   5   6  
 7   7   7   6   5   5   4   4   4   4   5   6   6   5   5   3   2   2   4   4   5   2   2   2   3   4   1   1   0   1   2   2   4   4   3   2   2   3   3   6   5   4   3   3   3   7   7   7   7   6   6   6   5   5   5   3   3   4   4   5  
 8   8   8   7   6   6   3   3   3   3   4   7   7   6   6   4   3   3   3   3   6   3   3   3   2   5   2   2   1   0   1   1   5   5   4   1   1   2   2   7   6   5   4   4   2   8   8   8   8   7   7   7   6   6   6   4   4   3   3   4  
 9   9   9   8   7   7   4   4   4   4   3   8   8   7   7   5   4   4   2   2   7   4   4   4   1   6   3   3   2   1   0   0   6   6   5   2   2   1   1   8   7   6   5   5   3   9   9   9   9   8   8   8   7   7   7   5   5   4   4   3  
 9   9   9   8   7   7   4   4   4   4   3   8   8   7   7   5   4   4   2   2   7   4   4   4   1   6   3   3   2   1   0   0   6   6   5   2   2   1   1   8   7   6   5   5   3   9   9   9   9   8   8   8   7   7   7   5   5   4   4   3  
 5   5   5   4   5   5   8   8   8   8   9   4   4   3   3   5   6   6   8   8   3   4   4   4   7   2   3   3   4   5   6   6   0   0   1   4   4   5   5   2   1   2   3   3   5   3   3   3   3   2   2   2   3   3   3   5   5   6   6   7  
 5   5   5   4   5   5   8   8   8   8   9   4   4   3   3   5   6   6   8   8   3   4   4   4   7   2   3   3   4   5   6   6   0   0   1   4   4   5   5   2   1   2   3   3   5   3   3   3   3   2   2   2   3   3   3   5   5   6   6   7  
 6   6   6   5   4   4   7   7   7   7   8   5   5   4   4   4   5   5   7   7   4   3   3   3   6   3   2   2   3   4   5   5   1   1   0   3   3   4   4   3   2   1   2   2   4   4   4   4   4   3   3   3   2   2   2   4   4   5   5   6  
 9   9   9   8   7   7   4   4   4   4   5   8   8   7   7   5   4   4   4   4   7   4   4   4   3   6   3   3   2   1   2   2   4   4   3   0   0   1   1   6   5   4   3   3   1   7   7   7   7   6   6   6   5   5   5   3   3   2   2   3  
 9   9   9   8   7   7   4   4   4   4   5   8   8   7   7   5   4   4   4   4   7   4   4   4   3   6   3   3   2   1   2   2   4   4   3   0   0   1   1   6   5   4   3   3   1   7   7   7   7   6   6   6   5   5   5   3   3   2   2   3  
10  10  10   9   8   8   5   5   5   5   4   9   9   8   8   6   5   5   3   3   8   5   5   5   2   7   4   4   3   2   1   1   5   5   4   1   1   0   0   7   6   5   4   4   2   8   8   8   8   7   7   7   6   6   6   4   4   3   3   2  
10  10  10   9   8   8   5   5   5   5   4   9   9   8   8   6   5   5   3   3   8   5   5   5   2   7   4   4   3   2   1   1   5   5   4   1   1   0   0   7   6   5   4   4   2   8   8   8   8   7   7   7   6   6   6   4   4   3   3   2  
 5   5   5   6   7   7  10  10  10  10  11   4   4   5   5   7   8   8  10  10   3   6   6   6   9   2   5   5   6   7   8   8   2   2   3   6   6   7   7   0   1   2   3   3   5   1   1   1   1   2   2   2   3   3   3   5   5   6   6   7  
 6   6   6   5   6   6   9   9   9   9  10   5   5   4   4   6   7   7   9   9   4   5   5   5   8   3   4   4   5   6   7   7   1   1   2   5   5   6   6   1   0   1   2   2   4   2   2   2   2   1   1   1   2   2   2   4   4   5   5   6  
 7   7   7   6   5   5   8   8   8   8   9   6   6   5   5   5   6   6   8   8   5   4   4   4   7   4   3   3   4   5   6   6   2   2   1   4   4   5   5   2   1   0   1   1   3   3   3   3   3   2   2   2   1   1   1   3   3   4   4   5  
 8   8   8   7   6   6   7   7   7   7   8   7   7   6   6   4   5   5   7   7   6   3   3   3   6   5   2   2   3   4   5   5   3   3   2   3   3   4   4   3   2   1   0   0   2   4   4   4   4   3   3   3   2   2   2   2   2   3   3   4  
 8   8   8   7   6   6   7   7   7   7   8   7   7   6   6   4   5   5   7   7   6   3   3   3   6   5   2   2   3   4   5   5   3   3   2   3   3   4   4   3   2   1   0   0   2   4   4   4   4   3   3   3   2   2   2   2   2   3   3   4  
10  10  10   9   8   8   5   5   5   5   6   9   9   8   8   6   5   5   5   5   8   5   5   5   4   7   4   4   3   2   3   3   5   5   4   1   1   2   2   5   4   3   2   2   0   6   6   6   6   5   5   5   4   4   4   2   2   1   1   2  
 6   6   6   7   8   8  11  11  11  11  12   5   5   6   6   8   9   9  11  11   4   7   7   7  10   3   6   6   7   8   9   9   3   3   4   7   7   8   8   1   2   3   4   4   6   0   0   0   0   1   1   1   2   2   2   4   4   5   5   6  
 6   6   6   7   8   8  11  11  11  11  12   5   5   6   6   8   9   9  11  11   4   7   7   7  10   3   6   6   7   8   9   9   3   3   4   7   7   8   8   1   2   3   4   4   6   0   0   0   0   1   1   1   2   2   2   4   4   5   5   6  
 6   6   6   7   8   8  11  11  11  11  12   5   5   6   6   8   9   9  11  11   4   7   7   7  10   3   6   6   7   8   9   9   3   3   4   7   7   8   8   1   2   3   4   4   6   0   0   0   0   1   1   1   2   2   2   4   4   5   5   6  
 6   6   6   7   8   8  11  11  11  11  12   5   5   6   6   8   9   9  11  11   4   7   7   7  10   3   6   6   7   8   9   9   3   3   4   7   7   8   8   1   2   3   4   4   6   0   0   0   0   1   1   1   2   2   2   4   4   5   5   6  
 7   7   7   6   7   7  10  10  10  10  11   6   6   5   5   7   8   8  10  10   5   6   6   6   9   4   5   5   6   7   8   8   2   2   3   6   6   7   7   2   1   2   3   3   5   1   1   1   1   0   0   0   1   1   1   3   3   4   4   5  
 7   7   7   6   7   7  10  10  10  10  11   6   6   5   5   7   8   8  10  10   5   6   6   6   9   4   5   5   6   7   8   8   2   2   3   6   6   7   7   2   1   2   3   3   5   1   1   1   1   0   0   0   1   1   1   3   3   4   4   5  
 7   7   7   6   7   7  10  10  10  10  11   6   6   5   5   7   8   8  10  10   5   6   6   6   9   4   5   5   6   7   8   8   2   2   3   6   6   7   7   2   1   2   3   3   5   1   1   1   1   0   0   0   1   1   1   3   3   4   4   5  
 8   8   8   7   6   6   9   9   9   9  10   7   7   6   6   6   7   7   9   9   6   5   5   5   8   5   4   4   5   6   7   7   3   3   2   5   5   6   6   3   2   1   2   2   4   2   2   2   2   1   1   1   0   0   0   2   2   3   3   4  
 8   8   8   7   6   6   9   9   9   9  10   7   7   6   6   6   7   7   9   9   6   5   5   5   8   5   4   4   5   6   7   7   3   3   2   5   5   6   6   3   2   1   2   2   4   2   2   2   2   1   1   1   0   0   0   2   2   3   3   4  
 8   8   8   7   6   6   9   9   9   9  10   7   7   6   6   6   7   7   9   9   6   5   5   5   8   5   4   4   5   6   7   7   3   3   2   5   5   6   6   3   2   1   2   2   4   2   2   2   2   1   1   1   0   0   0   2   2   3   3   4  
10  10  10   9   8   8   7   7   7   7   8   9   9   8   8   6   5   5   7   7   8   5   5   5   6   7   4   4   3   4   5   5   5   5   4   3   3   4   4   5   4   3   2   2   2   4   4   4   4   3   3   3   2   2   2   0   0   1   1   2  
10  10  10   9   8   8   7   7   7   7   8   9   9   8   8   6   5   5   7   7   8   5   5   5   6   7   4   4   3   4   5   5   5   5   4   3   3   4   4   5   4   3   2   2   2   4   4   4   4   3   3   3   2   2   2   0   0   1   1   2  
11  11  11  10   9   9   6   6   6   6   7  10  10   9   9   7   6   6   6   6   9   6   6   6   5   8   5   5   4   3   4   4   6   6   5   2   2   3   3   6   5   4   3   3   1   5   5   5   5   4   4   4   3   3   3   1   1   0   0   1  
11  11  11  10   9   9   6   6   6   6   7  10  10   9   9   7   6   6   6   6   9   6   6   6   5   8   5   5   4   3   4   4   6   6   5   2   2   3   3   6   5   4   3   3   1   5   5   5   5   4   4   4   3   3   3   1   1   0   0   1  
12  12  12  11  10  10   7   7   7   7   6  11  11  10  10   8   7   7   5   5  10   7   7   7   4   9   6   6   5   4   3   3   7   7   6   3   3   2   2   7   6   5   4   4   2   6   6   6   6   5   5   5   4   4   4   2   2   1   1   0  

 0  27  31   9  21  28  17  22  18  22  22  14  16  30  21  23  20  23  27  28  30  13  22  22  22  27   4  21  14  17  14  30  26  25  23  20  17  45  19  40  22  23  17  27  22  32  32  22  11  30  14  34  14  22  27  21  22  22  38  20  
 0   0  25  25  28  23  22  22  22  22  22  28  22  13  22  22  19  31  36  22   8  16  19  19  22  22  22  19  16  27  27  22  11  33  25  13  22  16  17  22  22  28  22  22  28  22  22  22  22  22  22  25  22  22  27  22  22  25  22  22  
 0   0   0  34  21  23  22  22  46  22  27  23  22  31  21  28  38  24  17  24  22  33  19  31  31  15  34  18  28  16  19  22  23  36  21  30  23   3  22   7  17  17  26   7  27  12  14  29  31  17  27  26  11  22  12  21  16  36  12  18  
 0   0   0   0  22   9  24  22   7  22  28  11  22  30  25  30  20  24   3  26  38  20  14  16  22  26  15  30  14  27  14  35  18  35  16  22  27  50  11  35  22  17  24  30  33  24  28  20  17  22  14  30  18  20  37   8  24  22  38  16  
 0   0   0   0   0  22  27  22  22  27  17  22  25  28   9  23  27  12  19  22  23  32  27  23  22  17  19  21  17  22  27  22  27  18  33  17  25  23  17  27  22  25  22  27  18  22  27  17  21  22  20  23  22  24  22  14  22  22  27  28  
 0   0   0   0   0   0  17  22  22  22  27  22  17  28  28  21  22  20   3  30  33  27  22  33  22  22  35  23  22  27  25  22  24  21  16  22  21  28  17  17  22  21  22  22  16  22  17  22  28  22  22  21  22  17  22  20  22  22  22  21  
 0   0   0   0   0   0   0  22  29  22  29  15  17  29  29  22  22  27  22  22  27  22  15  27  22  10  27  22  22  22  10  22  22  29  15  20  22  25  20  17  22  15  17  19  29  22  19  22  34  29  22  34  13  19  17  27  22  22  22  18  
 0   0   0   0   0   0   0   0  22  22  22  22  22  22  22  22  22  22  22  22  22  22  22  22  22  22  22  22  22  22  22  22  22  22  22  22  22  22  22  22  22  22  22  22  22  22  22  22  22  22  22  22  22  22  22  22  22  22  22  22  
 0   0   0   0   0   0   0   0   0  22  14  15  28  15  27  14   0  22  22  16  22  12  26  22  16  37  20  22  22  22  26  30  17   1  27  20  33  41  22  32  27  27  19  37  18  32  32  17  10  17  17   9  35  22  32  22  26  17  29  34  
 0   0   0   0   0   0   0   0   0   0  22  22  22  22  27  22  17  22  22  22  22  17  17  22  22  27  22  22  27  22  22  22  22  22  17  27  22  27  27  22  22  22  22  17  22  22  22  27  17  22  22  22  22  27  27  22  22  22  17  17  
 0   0   0   0   0   0   0   0   0   0   0  22  27  22  15   6  19  17  24  38  17  14  27  17  25  28  20  14  22  22  24  25  14  17  42  32  22  24  32  32  27  25  19  25  20  30  25  17  17  24  17  14  21  25  27  17  17  17  25  29  
 0   0   0   0   0   0   0   0   0   0   0   0  22  43  27  22  21  20  17  24  30  22  15  22  13  13  21  22  20  22   7  35  19  28  22  36  27  39  14  25  22   4  20  22  34  22  24  24  34  37  14  29  14  22  22  22  29  22  22   7  
 0   0   0   0   0   0   0   0   0   0   0   0   0  22  26  22  23  26  15  28  27  20  22  27  22  22  29  22  21  22  17  22  22  24  17  23  18  22  22  16  22  24  22  22  24  22  17  22  27  22  20  28  22  18  17  25  23  22  28  22  
 0   0   0   0   0   0   0   0   0   0   0   0   0   0  22  22  19  25  28  22   8  16  32  13  22  29  30  25  24  22  40  14  16  13  19  11  22   8  30  14  22  35  22  22  21  22  22  22  15   7  30  12  37  22  22  22  20  19  22  37  
 0   0   0   0   0   0   0   0   0   0   0   0   0   0   0  23  26  19  30  22  17  26  27  17  22  17  14  21  18  22  27  17  26  24  35  18  20  19  19  33  22  30  22  25  19  22  25  17  16  22  20  23  24  23  22  14  21  22  27  30  
 0   0   0   0   0   0   0   0   0   0   0   0   0   0   0   0  19  21  19  30  22  13  27  22  25  28  25  15  22  22  19  25  15  17  34  30  21  14  22  27  27  24  19  27  20  30  22  17  23  32  17  13  19  22  22  23  17  17  25  26  
 0   0   0   0   0   0   0   0   0   0   0   0   0   0   0   0   0  26  22  22  14   7  11  25  16  40  23  19  36  22  24  17  22   5  20   8  22  38  35  25  22  25  19  27  25  32  32  27   7  11  30  25  36  28  37  22  32  25  30  25  
 0   0   0   0   0   0   0   0   0   0   0   0   0   0   0   0   0   0  21  24  23  27  25  20  22  20  19  26  21  22  30  22  31  16  23  26  21  28  22  26  22  21  20  22  16  22  29  24  18  22  22  18  20  26  27  18  21  19  22  21  
 0   0   0   0   0   0   0   0   0   0   0   0   0   0   0   0   0   0   0  44  41  18  30  27  22  40  42  14  22  22  17  27  15  23  20  17  29  15  22   7  17  19  27  22  34  30  17  27  32  25  25   9  22  19  17  11  27  27  28  12  
 0   0   0   0   0   0   0   0   0   0   0   0   0   0   0   0   0   0   0   0  22  30  14  28  22  16  12  30  22  22  14  22  28  22  14  22  28  22  14  22  22  22  24  22  16  14  20  20  22  22  22  24  24  22  22  36  24  22  10  22  
 0   0   0   0   0   0   0   0   0   0   0   0   0   0   0   0   0   0   0   0   0  16  22  11  22  22  25  22  30  22  43  14  16  20  27  14  22   8  30  19  22  22  22  22  28  22  27  22  17  14  30  22  30  27  27  17  22  22  22  30  
 0   0   0   0   0   0   0   0   0   0   0   0   0   0   0   0   0   0   0   0   0   0  25  16  22  45  14  15  27  22  22  22   9  30  24  17  23  23  27  32  22  23  22  27  30  40  32  27   8  30  20  13  22  29  37  21  22  22  27  16  
 0   0   0   0   0   0   0   0   0   0   0   0   0   0   0   0   0   0   0   0   0   0   0  25  25  22  17  42  27  22   1  25  30  29  12  20  22  35  27  22  22  25  27  17  32  14  22  20  24  18  22  33  12  27  27  29  15  25  20  10  
 0   0   0   0   0   0   0   0   0   0   0   0   0   0   0   0   0   0   0   0   0   0   0   0  22  22  17  25  22  28  30  22  16  28  24  25  22  16  22  27  22  22  16  22  34  22  27  22  17  22  22  19  22  27  27  11  22  13  28  22  
 0   0   0   0   0   0   0   0   0   0   0   0   0   0   0   0   0   0   0   0   0   0   0   0   0  19  19  22  22  22  25  19  22  13  22  19  22  31  22  22  22  19  25  22  19  22  22  22  22  25  22  22  34  22  22  22  31  22  19  22  
 0   0   0   0   0   0   0   0   0   0   0   0   0   0   0   0   0   0   0   0   0   0   0   0   0   0  31  23  17  22  18  19  32  24  24  36  22  20  17  17  27   5  18  17  21   4  14  21  44  29  17  49  16  17   7  15  22  17  14  30  
 0   0   0   0   0   0   0   0   0   0   0   0   0   0   0   0   0   0   0   0   0   0   0   0   0   0   0  30  14  22   6  22  25  28  27  17  15  40  14  50  22  22  35  32  12  32  35  20   2  33  16  22  19  25  37  27  24  22  29  14  
 0   0   0   0   0   0   0   0   0   0   0   0   0   0   0   0   0   0   0   0   0   0   0   0   0   0   0   0  22  22  27  22  13  22  34  26  23  14  22  22  22  16  14  22  22  30  22  29  21  30  22  25  22  22  22  14  29  25  22  23  
 0   0   0   0   0   0   0   0   0   0   0   0   0   0   0   0   0   0   0   0   0   0   0   0   0   0   0   0   0  22  14  30  22  30  27  20  22  25   9  29  22  28  22  27  22  22  22  17  27  30  14  22  14  16  17  22  23  22  27  19  
 0   0   0   0   0   0   0   0   0   0   0   0   0   0   0   0   0   0   0   0   0   0   0   0   0   0   0   0   0   0  22  22  27  17  22  22  22  22  27  22  22  22  28  22  22  22  22  22  22  22  22  22  22  22  17  22  22  28  22  22  
 0   0   0   0   0   0   0   0   0   0   0   0   0   0   0   0   0   0   0   0   0   0   0   0   0   0   0   0   0   0   0  33  22  37  20  30  22  30  14  25  22  18  27  22  32  22  17  22  34  34  14  32   4  17  17  35  22  25  25   7  
 0   0   0   0   0   0   0   0   0   0   0   0   0   0   0   0   0   0   0   0   0   0   0   0   0   0   0   0   0   0   0   0  27  14  22  11  17  14  30  19  22  24  25  22  14  22  22  22  17  17  30  22  33  22  22  22  22  22  19  30  
 0   0   0   0   0   0   0   0   0   0   0   0   0   0   0   0   0   0   0   0   0   0   0   0   0   0   0   0   0   0   0   0   0  33  31  22  28   8  17  17  22  18  24  22  33  30  20  20  26  30  22  15  24  22  27  21  24  22  22  23  
 0   0   0   0   0   0   0   0   0   0   0   0   0   0   0   0   0   0   0   0   0   0   0   0   0   0   0   0   0   0   0   0   0   0  27  19  20  29  35  19  27  27  22  27   2  22  22  17  15  12  27  15  46  20  17  24  26  17  22  42  
 0   0   0   0   0   0   0   0   0   0   0   0   0   0   0   0   0   0   0   0   0   0   0   0   0   0   0   0   0   0   0   0   0   0   0  23  21  33  25  12  17  21  22  14  27  14  19  32  23   9  27  26  20  24  22  28  27  24  17   9  
 0   0   0   0   0   0   0   0   0   0   0   0   0   0   0   0   0   0   0   0   0   0   0   0   0   0   0   0   0   0   0   0   0   0   0   0  22  17  23  20  17  32  25  34  24  35  34  18  17  12  35  18  31  20  27  29  19  30  34  28  
 0   0   0   0   0   0   0   0   0   0   0   0   0   0   0   0   0   0   0   0   0   0   0   0   0   0   0   0   0   0   0   0   0   0   0   0   0  22  22  27  22  24  22  22  15  22  22  22  18  22  24  27  22  20  22  25  22  22  28  21  
 0   0   0   0   0   0   0   0   0   0   0   0   0   0   0   0   0   0   0   0   0   0   0   0   0   0   0   0   0   0   0   0   0   0   0   0   0   0  15   4  22  22  27  24  28  20  14  17  37  30  30   9  19  19   7  22  13  22  17  28  
 0   0   0   0   0   0   0   0   0   0   0   0   0   0   0   0   0   0   0   0   0   0   0   0   0   0   0   0   0   0   0   0   0   0   0   0   0   0   0  30  22  22  22  29  22  22  24  17  27  38  14  22  12  19  22  22  22  22  27  17  
 0   0   0   0   0   0   0   0   0   0   0   0   0   0   0   0   0   0   0   0   0   0   0   0   0   0   0   0   0   0   0   0   0   0   0   0   0   0   0   0  17  17  22   7  32  12   7  27  42   9  35  22  30  16   7  27  28  27  12  25  
 0   0   0   0   0   0   0   0   0   0   0   0   0   0   0   0   0   0   0   0   0   0   0   0   0   0   0   0   0   0   0   0   0   0   0   0   0   0   0   0   0  22  22  17  27  22  22  27  22  17  27  22  22  22  22  22  27  27  22  17  
 0   0   0   0   0   0   0   0   0   0   0   0   0   0   0   0   0   0   0   0   0   0   0   0   0   0   0   0   0   0   0   0   0   0   0   0   0   0   0   0   0   0  25  22  29  22  22  29  35  32  24  35  18  20  22  18  29  22  19  14  
 0   0   0   0   0   0   0   0   0   0   0   0   0   0   0   0   0   0   0   0   0   0   0   0   0   0   0   0   0   0   0   0   0   0   0   0   0   0   0   0   0   0   0  17  25  22  24  24  22  19  22  27  17  22  22  22  20  16  25  27  
 0   0   0   0   0   0   0   0   0   0   0   0   0   0   0   0   0   0   0   0   0   0   0   0   0   0   0   0   0   0   0   0   0   0   0   0   0   0   0   0   0   0   0   0  27  12  10  32  27  17  27  27  24  25  17  22  27  27   7  19  
 0   0   0   0   0   0   0   0   0   0   0   0   0   0   0   0   0   0   0   0   0   0   0   0   0   0   0   0   0   0   0   0   0   0   0   0   0   0   0   0   0   0   0   0   0  22  22  17  10  23  19  15  32  20  22  30  17  17  13  34  
 0   0   0   0   0   0   0   0   0   0   0   0   0   0   0   0   0   0   0   0   0   0   0   0   0   0   0   0   0   0   0   0   0   0   0   0   0   0   0   0   0   0   0   0   0   0  12  19  32  14  22  30  22  22  12  22  22  22  12  22  
 0   0   0   0   0   0   0   0   0   0   0   0   0   0   0   0   0   0   0   0   0   0   0   0   0   0   0   0   0   0   0   0   0   0   0   0   0   0   0   0   0   0   0   0   0   0   0  20  37  22  22  22  26  15   7  27  24  22  12  24  
 0   0   0   0   0   0   0   0   0   0   0   0   0   0   0   0   0   0   0   0   0   0   0   0   0   0   0   0   0   0   0   0   0   0   0   0   0   0   0   0   0   0   0   0   0   0   0   0  27  27  17  15  24  17  17  29  12  17  27  32  
 0   0   0   0   0   0   0   0   0   0   0   0   0   0   0   0   0   0   0   0   0   0   0   0   0   0   0   0   0   0   0   0   0   0   0   0   0   0   0   0   0   0   0   0   0   0   0   0   0  15  22  16  29  32  42  16  22  22  27  25  
 0   0   0   0   0   0   0   0   0   0   0   0   0   0   0   0   0   0   0   0   0   0   0   0   0   0   0   0   0   0   0   0   0   0   0   0   0   0   0   0   0   0   0   0   0   0   0   0   0   0  35  23  34  22  22  22  27  27  25  32  
 0   0   0   0   0   0   0   0   0   0   0   0   0   0   0   0   0   0   0   0   0   0   0   0   0   0   0   0   0   0   0   0   0   0   0   0   0   0   0   0   0   0   0   0   0   0   0   0   0   0   0  22  14  24  22  20  17  17  22  19  
 0   0   0   0   0   0   0   0   0   0   0   0   0   0   0   0   0   0   0   0   0   0   0   0   0   0   0   0   0   0   0   0   0   0   0   0   0   0   0   0   0   0   0   0   0   0   0   0   0   0   0   0  29  22  22  30  15  19  16  23  
 0   0   0   0   0   0   0   0   0   0   0   0   0   0   0   0   0   0   0   0   0   0   0   0   0   0   0   0   0   0   0   0   0   0   0   0   0   0   0   0   0   0   0   0   0   0   0   0   0   0   0   0   0  24  22  22  11  22  25   5  
 0   0   0   0   0   0   0   0   0   0   0   0   0   0   0   0   0   0   0   0   0   0   0   0   0   0   0   0   0   0   0   0   0   0   0   0   0   0   0   0   0   0   0   0   0   0   0   0   0   0   0   0   0   0  12  29  23  22  27  29  
 0   0   0   0   0   0   0   0   0   0   0   0   0   0   0   0   0   0   0   0   0   0   0   0   0   0   0   0   0   0   0   0   0   0   0   0   0   0   0   0   0   0   0   0   0   0   0   0   0   0   0   0   0   0   0  27  22  22  17  27  
 0   0   0   0   0   0   0   0   0   0   0   0   0   0   0   0   0   0   0   0   0   0   0   0   0   0   0   0   0   0   0   0   0   0   0   0   0   0   0   0   0   0   0   0   0   0   0   0   0   0   0   0   0   0   0   0  29  22  28  23  
 0   0   0   0   0   0   0   0   0   0   0   0   0   0   0   0   0   0   0   0   0   0   0   0   0   0   0   0   0   0   0   0   0   0   0   0   0   0   0   0   0   0   0   0   0   0   0   0   0   0   0   0   0   0   0   0   0  17  22  27  
 0   0   0   0   0   0   0   0   0   0   0   0   0   0   0   0   0   0   0   0   0   0   0   0   0   0   0   0   0   0   0   0   0   0   0   0   0   0   0   0   0   0   0   0   0   0   0   0   0   0   0   0   0   0   0   0   0   0  22  27  
 0   0   0   0   0   0   0   0   0   0   0   0   0   0   0   0   0   0   0   0   0   0   0   0   0   0   0   0   0   0   0   0   0   0   0   0   0   0   0   0   0   0   0   0   0   0   0   0   0   0   0   0   0   0   0   0   0   0   0  17  
 0   0   0   0   0   0   0   0   0   0   0   0   0   0   0   0   0   0   0   0   0   0   0   0   0   0   0   0   0   0   0   0   0   0   0   0   0   0   0   0   0   0   0   0   0   0   0   0   0   0   0   0   0   0   0   0   0   0   0   0  
